67
71
72
85
36
58
96
95
17
18
56
87
1
48
16
34
6
87
51
61
70
59
68
88
20
48
95
45
87
28
78
18
20
22
15
51
63
64
17
84
98
54
88
72
38
2
16
35
4
93
24
78
19
22
31
58
82
96
93
12
15
45
39
57
18
38
90
91
79
17
14
29
22
4
17
28
45
43
29
27
94
56
70
9
49
90
39
45
9
19
21
83
89
28
23
20
50
66
16
59
34
80
8
85
49
16
53
5
81
93
37
2
97
34
49
34
3
98
62
4
81
97
39
16
100
95
40
32
32
31
5
69
13
42
6
11
52
97
8
37
65
42
69
14
71
96
38
14
43
60
10
82
6
50
71
10
7
46
46
42
98
40
94
25
38
86
98
15
97
26
62
13
74
54
42
35
100
93
71
94
69
79
31
96
44
14
38
77
74
41
98
83
48
68
39
42
49
31
6
81
52
92
55
48
15
86
3
59
78
19
71
54
54
27
27
100
23
21
62
49
72
3
95
70
67
1
13
59
80
96
56
31
86
87
11
39
92
18
80
38
82
13
1
65
100
66
33
39
41
12
93
83
52
75
97
9
46
48
58
76
81
26
45
55
88
16
49
35
40
29
97
10
85
85
57
40
2
37
84
50
6
9
71
92
20
58
75
49
18
90
84
27
49
31
24
93
58
80
24
89
63
65
9
30
90
6
31
9
32
11
20
30
85
64
72
75
49
57
99
59
84
1
83
100
33
46
89
65
67
7
49
44
35
30
48
96
39
42
57
53
20
82
10
35
28
51
72
4
16
40
41
36
69
55
91
29
2
94
37
6
39
83
95
53
15
40
17
11
85
25
42
75
33
42
2
53
87
83
68
31
90
30
8
50
54
73
59
26
13
75
17
4
19
44
35
70
27
40
72
50
4
63
14
4
42
30
88
39
34
62
5
28
93
33
14
2
7
43
68
21
66
1
3
94
77
70
49
52
19
46
93
7
19
54
69
28
40
10
68
13
88
49
19
81
88
84
61
11
50
33
93
51
45
82
28
95
31
41
48
29
59
95
17
19
80
8
62
70
92
16
95
66
61
32
91
66
100
26
22
85
90
87
87
22
23
75
86
7
71
37
3
45
2
82
96
78
15
63
12
91
42
79
41
3
42
62
42
79
86
51
75
39
96
32
84
6
100
1
3
52
69
93
47
80
22
21
71
98
45
40
44
70
57
19
85
25
94
49
89
47
24
98
10
37
73
25
8
3
100
87
54
26
5
5
10
13
35
91
71
73
21
42
37
25
55
34
1
95
95
28
59
84
32
25
52
7
9
34
21
98
8
83
12
21
92
80
6
23
74
76
81
98
18
30
69
3
30
15
52
14
86
12
73
84
28
49
26
65
82
51
67
66
10
21
78
19
59
26
73
70
28
36
33
24
9
100
73
91
94
18
8
12
17
97
61
23
3
12
73
27
42
58
98
14
67
88
56
96
11
21
69
71
95
93
28
30
96
25
39
98
100
76
18
51
29
34
12
49
34
15
65
43
53
40
78
45
3
60
15
89
56
65
38
14
98
54
15
44
23
63
31
69
79
11
29
89
90
91
89
78
44
11
47
32
49
20
81
56
11
19
37
86
7
38
93
87
9
31
79
72
10
46
69
45
81
34
83
44
58
47
53
46
32
27
24
66
71
16
42
20
9
73
49
90
14
94
4
50
80
62
16
17
24
44
14
53
78
8
52
74
83
52
86
73
32
27
45
49
4
43
78
92
58
62
45
55
61
56
29
78
22
99
57
84
25
52
99
55
51
93
97
50
67
39
94
28
6
42
97
99
71
37
81
100
78
76
51
83
18
79
98
34
57
15
73
80
20
41
15
27
6
37
65
54
18
44
13
68
35
18
87
50
93
6
23
14
3
55
93
69
14
63
95
28
34
83
67
65
67
22
35
10
35
91
90
82
35
96
63
69
64
74
8
56
35
99
3
80
79
27
82
92
88
54
70
16
16
85
39
34
2
74
30
98
98
73
6
57
42
92
28
84
85
46
75
44
9
48
80
30
24
26
26
68
74
58
75
76
5
68
88
58
76
90
74
12
9
16
21
19
29
43
56
52
74
82
77
2
57
99
26
80
87
69
80
88
17
72
36
36
47
17
3
70
96
72
54
36
46
19
10
19
14
74
46
56
84
94
81
24
58
21
51
27
91
66
73
47
59
10
19
87
59
43
87
97
81
16
100
51
47
38
80
21
82
30
49
33
29
31
45
100
20
65
97
19
31
7
23
61
26
87
93
68
64
48
51
35
68
69
60
18
68
83
3
51
2
19
28
3
5
14
54
36
81
2
97
79
14
49
57
55
15
55
64
43
31
32
51
66
13
9
81
68
10
55
72
73
13
25
28
48
33
42
98
46
57
21
92
32
73
43
61
20
11
89
74
35
51
20
62
68
54
56
100
93
65
87
37
69
8
52
76
17
33
2
82
96
76
84
85
35
42
98
63
70
70
59
3
10
12
54
52
56
58
2
64
100
20
85
57
24
97
45
24
87
58
31
42
77
46
14
21
83
55
75
37
79
42
42
39
77
69
86
19
12
70
51
41
33
78
90
86
21
7
58
2
85
44
12
66
94
18
24
55
23
97
37
37
99
88
55
24
96
48
47
81
100
40
18
86
28
98
73
25
80
95
17
79
77
32
51
78
77
100
72
44
54
5
76
96
46
7
31
56
85
18
45
73
31
7
40
37
4
89
35
95
16
4
16
76
66
4
49
82
42
39
54
98
3
87
55
16
51
77
65
5
93
70
28
22
83
58
25
38
21
26
93
53
54
94
2
39
27
68
51
83
1
95
4
84
69
2
62
35
66
38
73
13
54
31
77
23
9
8
67
64
37
53
36
44
31
45
66
16
22
96
27
77
11
78
92
51
64
76
69
68
21
16
42
76
5
63
73
73
12
50
95
17
39
57
9
17
44
60
31
16
46
34
73
59
90
64
11
22
47
75
98
76
42
14
34
63
13
58
95
34
44
94
60
11
42
78
86
56
40
92
29
98
46
70
7
88
56
63
85
32
6
13
17
82
45
42
8
20
51
31
16
96
25
56
56
90
85
92
63
71
16
9
67
95
44
74
67
34
30
42
61
16
19
13
80
11
66
92
76
31
50
40
80
35
28
58
20
100
18
21
6
91
15
77
33
21
87
12
35
12
64
39
26
60
49
32
1
42
76
38
33
56
63
27
42
37
92
81
90
98
47
39
39
18
82
8
46
94
51
96
1
87
95
32
8
85
89
45
46
55
55
40
46
15
74
63
97
87
47
26
86
22
66
60
62
16
36
32
18
10
19
70
97
72
68
61
56
25
39
82
79
35
67
51
9
50
26
35
89
71
52
41
100
71
6
86
31
89
42
93
16
10
90
93
83
49
43
35
92
22
39
82
13
92
97
41
71
28
69
97
91
12
13
4
37
68
63
21
4
62
11
93
68
79
32
92
86
77
99
47
3
88
66
27
14
87
38
27
20
6
27
34
79
55
54
64
85
16
72
25
38
92
10
26
6
90
35
90
2
63
95
92
88
94
4
11
75
76
62
67
3
4
59
11
40
9
14
6
36
92
25
20
91
87
64
48
10
93
32
49
92
40
69
100
36
94
12
3
79
36
27
26
93
24
44
72
90
2
83
34
14
25
9
3
1
77
61
7
66
84
86
87
26
86
2
76
32
65
20
32
38
17
56
17
16
83
48
73
21
36
45
99
31
10
54
74
51
50
47
5
97
11
97
20
87
22
26
27
85
54
52
15
37
57
85
36
73
25
36
63
10
56
73
60
60
72
32
2
95
77
7
71
36
88
87
95
21
48
7
89
92
19
44
15
48
51
41
86
8
60
61
48
21
85
42
79
22
3
70
13
11
63
58
31
79
88
8
45
54
45
83
11
78
32
52
68
91
100
5
68
94
88
41
56
27
73
72
80
58
92
40
50
82
50
7
33
46
40
36
45
64
82
31
63
35
100
53
18
6
8
32
23
77
52
23
31
74
99
60
71
1
8
48
61
9
38
33
49
67
49
51
81
99
70
6
18
4
72
55
66
20
37
56
90
4
83
43
98
2
77
6
28
16
17
18
10
16
73
98
52
29
83
43
6
70
83
53
41
6
57
96
65
59
70
40
74
16
84
20
3
27
52
3
65
69
78
35
38
54
3
2
92
78
23
35
18
67
77
2
37
90
100
99
62
13
93
75
93
70
69
41
58
14
47
54
52
6
16
85
49
62
36
97
16
86
78
6
48
91
37
77
43
29
48
52
11
59
3
74
34
39
10
73
35
24
54
13
100
14
95
89
67
14
79
59
56
69
69
63
63
54
33
44
99
22
72
47
75
89
51
54
60
27
80
32
23
77
96
43
97
2
62
16
18
71
58
14
27
31
44
66
60
16
66
6
72
37
55
41
99
7
14
88
85
98
56
64
54
33
94
19
76
75
22
15
85
42
45
27
43
91
94
79
65
11
98
6
61
84
94
34
33
47
56
26
68
24
32
81
11
96
94
50
40
47
82
84
88
33
91
31
39
93
11
5
44
43
1
9
82
59
32
34
94
6
21
83
70
96
39
66
37
94
46
64
83
43
48
78
19
61
66
51
16
27
41
49
10
21
61
52
5
94
35
79
55
81
79
85
20
90
42
98
64
96
50
69
89
13
89
30
10
72
73
92
17
76
73
76
17
40
87
60
21
11
84
72
18
77
70
83
44
7
47
57
45
30
44
12
29
54
82
1
97
68
12
99
18
11
67
100
38
80
7
2
12
59
4
17
77
31
40
19
62
26
98
49
22
92
67
47
96
29
66
45
83
100
8
31
94
1
34
14
38
22
27
51
79
52
41
36
7
42
62
61
3
57
87
28
75
83
23
10
99
61
65
59
76
69
11
78
42
79
54
17
65
56
21
63
47
99
82
35
43
62
39
20
96
44
100
56
82
13
48
48
61
28
46
39
38
65
21
15
1
96
83
7
1
9
76
37
26
27
15
90
52
43
64
90
18
73
49
100
20
36
46
19
61
38
42
54
52
84
15
74
94
80
39
15
34
83
14
13
98
54
11
59
91
43
86
66
76
21
90
64
87
34
35
80
23
27
59
50
25
89
39
17
23
83
92
25
7
20
45
90
40
64
25
33
20
13
98
35
19
82
57
80
65
72
65
96
36
50
57
7
5
44
33
37
17
74
10
48
42
42
46
1
90
89
18
33
28
20
98
54
22
44
32
33
30
12
32
97
5
7
100
68
90
91
84
57
87
5
27
80
73
84
65
32
9
41
28
76
44
32
83
9
5
65
25
8
51
98
83
84
74
24
99
2
52
29
92
62
39
32
5
44
91
52
97
92
95
1
75
29
37
11
33
36
74
91
65
48
67
45
28
14
97
7
54
97
100
9
6
96
30
97
91
7
13
21
100
93
43
7
6
70
90
77
95
66
34
89
2
55
70
95
43
17
38
63
21
11
49
79
90
41
7
13
4
49
90
68
26
83
65
21
31
50
35
53
84
10
64
80
76
55
97
43
32
35
76
100
61
21
17
22
94
77
13
18
96
44
94
28
89
46
55
80
38
41
38
34
93
80
18
8
29
67
65
61
10
58
42
30
6
41
6
44
41
72
94
39
50
94
82
73
23
45
36
34
94
19
87
66
59
11
38
36
73
16
8
28
73
81
24
7
40
30
100
50
9
66
27
33
89
78
51
96
21
31
1
78
88
33
100
24
98
85
81
26
13
37
27
11
74
48
6
18
40
70
10
53
68
88
43
99
86
75
50
72
92
6
56
26
28
73
57
45
55
95
89
66
12
78
89
60
47
100
62
34
10
51
14
74
52
81
66
31
13
27
84
88
54
39
72
62
33
48
58
35
85
71
9
90
15
18
82
93
77
53
29
26
86
52
29
33
53
16
43
34
65
63
52
84
42
29
1
84
37
81
60
95
13
34
51
72
83
9
39
34
38
33
73
4
98
45
11
41
39
92
40
58
98
61
95
28
28
12
8
94
38
77
22
6
5
86
84
41
65
28
45
17
84
95
46
57
80
12
92
6
17
63
15
7
23
43
86
34
69
15
86
7
69
55
40
24
66
66
26
28
37
73
18
6
45
29
43
40
98
35
87
85
7
71
79
40
39
97
18
5
21
25
27
61
75
77
37
9
1
83
97
21
36
9
45
49
11
16
18
98
67
97
50
65
57
50
60
81
82
66
13
59
8
69
99
66
19
5
25
33
65
29
53
72
96
53
28
9
86
5
47
44
62
29
9
42
50
71
4
62
76
17
87
100
7
83
100
26
83
49
75
12
32
37
11
7
81
22
21
17
12
37
5
71
65
94
51
22
50
43
33
28
91
24
12
90
24
100
49
23
81
21
63
98
3
59
1
43
64
43
39
48
29
22
47
98
64
35
25
63
55
19
8
31
60
31
39
89
56
29
70
59
78
51
29
25
22
75
32
37
63
59
1
6
32
33
87
38
48
28
81
88
19
92
97
19
60
82
89
99
40
2
88
52
4
35
85
50
70
99
83
57
65
9
60
47
21
69
82
83
43
70
90
74
93
50
52
41
76
59
96
35
100
81
89
1
18
38
41
3
69
68
80
51
51
84
86
5
11
63
14
60
91
31
55
8
36
33
4
78
98
93
2
49
68
79
15
2
28
37
29
78
58
75
38
91
23
33
80
61
59
21
27
24
12
50
6
19
98
89
43
13
94
86
22
73
1
33
62
16
66
20
58
72
98
3
81
17
55
27
62
32
55
63
89
68
7
99
37
11
69
66
96
99
77
27
98
70
83
8
93
28
92
2
4
36
86
54
38
64
78
51
26
41
59
65
99
30
94
43
38
70
13
93
78
22
69
38
9
15
43
67
89
5
29
54
17
31
32
7
36
95
26
93
37
57
9
25
8
94
1
68
61
48
71
95
99
85
37
13
43
51
60
37
78
51
57
30
36
42
47
43
63
74
93
24
24
61
32
53
43
9
100
16
95
92
54
34
60
69
44
58
88
17
64
89
35
39
30
99
3
89
36
28
50
50
23
72
18
42
91
40
75
78
14
94
84
19
73
4
76
88
83
63
31
29
95
90
7
41
77
94
54
6
70
93
54
89
56
86
72
49
22
65
92
24
35
36
82
16
97
43
23
81
40
23
42
82
89
61
68
97
22
23
58
16
87
4
51
53
24
80
40
66
47
93
47
30
53
5
97
42
93
16
91
55
96
96
89
88
76
26
10
23
22
19
16
86
33
69
78
7
29
38
62
90
55
26
20
68
5
34
83
57
100
45
43
86
59
21
72
74
60
76
54
9
4
42
40
89
58
4
7
67
99
81
63
92
35
63
82
84
60
19
74
34
99
85
71
35
87
62
74
62
11
14
60
30
78
13
64
76
97
44
61
100
36
45
23
17
66
2
19
48
9
31
78
15
67
10
16
75
57
75
61
100
4
77
20
46
67
74
31
41
83
80
90
6
99
81
36
2
58
83
9
65
91
15
83
63
72
80
99
48
5
26
34
60
53
84
33
84
97
52
20
23
82
11
96
49
15
24
70
47
90
64
34
42
83
38
63
60
82
64
98
18
41
91
83
56
65
70
7
36
67
85
84
45
14
6
100
67
74
30
7
58
3
65
98
37
93
28
24
30
46
51
36
10
41
42
44
42
18
73
26
19
43
14
34
95
15
12
31
58
62
88
10
69
59
46
64
100
95
26
63
42
42
80
1
77
22
19
80
23
10
22
66
2
99
41
72
37
47
59
82
1
54
52
29
52
38
58
78
63
33
47
24
13
61
52
48
88
44
32
41
26
33
1
42
47
68
37
44
11
59
33
5
31
96
46
86
8
1
35
6
73
66
58
45
24
33
21
20
85
97
1
17
12
93
59
17
45
69
61
42
44
35
48
94
4
55
93
15
53
18
74
34
23
26
4
25
8
64
9
76
77
36
45
91
37
82
40
23
22
87
21
73
38
32
83
91
18
43
6
57
24
1
75
14
37
37
42
82
68
6
26
6
22
9
44
26
91
8
48
63
64
100
20
26
21
18
30
76
48
66
18
46
15
56
74
9
90
57
60
96
14
51
12
76
88
16
38
66
97
57
38
85
13
31
90
59
28
97
87
50
3
99
88
31
53
52
99
81
5
1
30
38
57
11
60
80
9
78
91
16
13
56
86
55
49
99
2
52
51
51
21
50
55
49
77
59
46
55
30
20
24
72
79
15
78
74
53
78
67
46
9
33
75
39
15
65
2
37
64
22
90
76
16
81
15
42
4
96
8
91
69
20
8
82
10
51
26
58
37
97
26
100
24
19
69
12
38
19
94
18
82
21
18
25
44
32
29
26
89
91
86
15
26
41
30
53
93
39
90
19
6
26
87
40
85
29
31
7
56
86
64
8
100
13
12
54
85
97
81
10
31
57
8
16
11
33
11
16
82
13
4
78
63
6
43
93
46
14
50
13
46
61
39
40
27
24
94
39
62
29
11
73
85
45
18
100
91
69
94
85
65
65
94
72
67
1
81
24
60
7
97
31
6
2
97
63
19
59
91
71
39
24
10
85
71
82
10
24
36
31
43
72
72
47
18
70
44
89
93
60
100
7
8
42
82
9
30
64
5
67
20
81
40
99
37
11
31
99
47
92
12
49
3
43
8
4
61
30
15
81
89
59
18
30
14
30
43
33
59
76
15
2
28
75
21
53
81
67
37
15
73
92
20
28
45
91
98
58
48
73
40
91
92
38
58
22
58
4
54
46
44
15
87
95
37
64
2
89
64
18
54
57
28
16
83
100
98
61
9
6
95
58
63
85
18
38
43
28
55
55
40
12
69
100
97
60
98
27
5
16
30
72
19
87
71
58
29
92
51
28
31
23
2
70
17
86
6
42
36
71
23
32
85
65
38
49
91
94
33
96
78
88
25
54
7
23
76
98
57
15
48
74
89
51
13
82
37
31
75
87
95
33
40
63
97
93
51
48
14
93
44
11
73
15
22
12
70
18
38
11
36
32
80
30
34
67
8
41
53
92
16
69
67
25
54
15
3
7
59
73
73
83
37
37
42
85
9
52
93
26
55
61
86
23
34
33
26
38
24
38
27
82
93
34
39
42
63
25
13
53
63
55
20
22
90
62
38
93
76
57
1
77
72
52
54
97
56
53
4
34
2
65
96
76
51
93
90
65
85
41
5
5
24
17
3
6
43
85
55
40
17
73
49
89
19
16
13
89
90
10
50
38
3
95
7
79
32
67
46
38
49
1
73
30
35
15
98
92
83
51
3
63
48
14
14
34
19
33
55
96
29
91
57
85
64
63
51
85
96
34
87
62
34
57
98
98
48
60
31
33
35
30
67
74
74
7
61
65
46
62
88
54
79
100
26
10
76
79
89
61
82
45
54
10
85
11
49
46
17
21
85
86
37
28
48
74
50
58
16
17
82
39
5
18
39
40
56
83
33
18
49
2
63
100
59
15
40
40
22
97
44
59
77
91
41
34
78
72
74
54
43
47
54
26
52
44
65
62
41
9
51
79
66
49
88
80
26
51
87
13
83
81
10
92
83
20
81
52
25
26
34
47
95
13
32
94
75
86
49
4
77
69
34
74
2
57
52
72
11
92
77
89
59
56
95
62
35
53
85
71
85
77
57
50
50
89
86
36
55
19
77
73
18
39
5
98
3
21
51
95
96
35
71
35
47
64
95
16
86
83
100
99
6
2
16
84
17
48
35
56
95
58
66
16
73
34
62
13
82
80
49
57
38
10
14
59
39
80
8
83
96
64
87
81
32
20
91
1
63
24
9
2
13
78
76
86
88
5
37
19
74
46
22
5
34
3
83
37
40
41
32
48
85
75
72
6
70
80
48
47
8
21
37
4
98
31
39
54
59
69
62
89
55
28
50
77
14
71
92
36
66
6
41
48
30
51
47
92
65
93
91
78
78
89
20
12
19
91
96
42
10
67
31
54
14
7
90
91
91
61
85
89
74
81
73
46
13
79
97
66
80
32
80
96
84
72
19
48
5
5
80
98
49
39
8
73
52
66
9
62
13
19
88
72
27
12
35
52
73
54
10
5
59
5
70
50
93
71
56
5
25
74
86
30
42
25
10
15
20
100
31
95
69
55
56
87
4
49
65
21
78
6
30
84
81
36
91
56
55
5
51
96
7
93
90
33
78
26
15
4
40
12
7
87
83
7
5
98
14
14
94
57
16
92
80
33
56
89
47
86
14
28
38
66
22
53
4
1
49
2
16
46
44
79
75
40
59
74
25
89
40
85
74
57
27
10
94
96
7
8
95
9
1
49
90
42
41
31
25
87
64
34
6
85
62
51
78
77
74
43
4
59
24
79
23
70
67
75
96
83
14
94
9
79
1
38
12
55
99
69
72
86
81
23
66
80
50
81
14
37
88
4
83
70
77
89
62
32
66
58
7
78
69
12
3
90
42
56
100
35
49
93
67
57
80
97
94
50
75
89
48
57
83
3
22
79
48
26
24
73
50
39
85
57
60
51
40
75
40
39
20
73
70
16
60
56
95
92
31
89
92
82
16
84
21
45
11
92
75
28
61
40
67
24
11
19
89
86
52
79
39
20
34
73
46
64
67
82
95
93
27
26
95
36
40
49
86
47
28
50
91
9
9
99
38
20
64
94
23
71
60
29
100
56
54
70
38
65
36
13
59
68
52
91
65
26
86
60
4
93
36
4
3
33
77
81
87
31
79
36
98
51
66
54
57
53
51
48
46
86
62
45
76
92
73
24
82
42
19
41
95
61
22
51
76
23
36
76
27
49
17
90
29
91
47
71
37
67
54
51
47
25
66
64
31
75
45
58
95
19
81
59
63
49
98
16
100
16
61
80
39
96
72
80
84
86
48
35
57
2
75
9
8
53
57
57
20
23
61
14
87
38
93
77
28
12
83
89
61
2
79
67
78
26
61
76
19
66
41
78
15
3
36
72
34
93
78
33
46
80
41
21
97
51
2
51
19
2
43
92
77
81
44
50
86
100
90
88
37
7
51
60
95
54
72
85
79
24
54
9
10
9
34
67
66
73
67
58
84
12
72
95
82
65
9
15
81
7
20
76
63
82
75
13
68
20
50
47
81
12
4
9
43
17
99
1
48
65
15
72
49
48
5
91
86
72
62
64
38
1
98
29
77
6
79
92
61
78
59
67
30
21
69
23
9
85
59
93
60
21
71
34
30
78
25
17
45
