32
55
70
89
3
22
61
30
24
58
47
84
63
78
64
88
32
15
14
77
45
82
75
32
14
64
60
56
83
4
74
88
7
13
66
10
4
100
39
48
4
45
86
82
18
27
13
59
26
34
21
16
58
90
83
79
1
90
95
87
6
73
60
64
92
31
45
94
5
17
4
73
36
5
90
73
85
96
75
8
97
73
22
4
40
11
65
73
55
23
1
76
97
61
82
30
100
62
59
46
8
54
21
14
25
94
12
33
43
55
50
76
63
16
53
89
24
90
78
29
77
54
2
51
6
80
72
17
86
22
39
34
77
80
47
11
80
56
56
99
23
9
53
59
47
54
40
83
10
53
3
87
65
15
13
84
96
29
76
22
32
19
98
93
98
88
48
91
98
43
7
84
29
26
7
100
44
19
65
72
65
32
65
56
55
84
55
84
76
30
77
33
14
32
96
81
95
8
71
86
86
11
47
37
71
27
83
8
68
70
64
64
18
77
74
2
40
65
72
60
98
75
100
53
15
35
61
34
22
70
46
31
67
42
18
75
64
59
41
37
80
75
83
84
28
88
50
89
24
24
34
47
13
60
85
48
61
74
89
61
86
42
66
31
65
40
42
46
61
28
85
97
90
86
16
26
77
33
20
81
84
30
75
85
63
26
51
55
66
42
87
67
46
21
46
17
81
83
67
61
75
65
93
100
42
77
31
44
38
21
27
48
78
94
39
81
67
70
57
38
79
45
23
52
92
75
15
33
5
19
24
65
42
45
83
3
60
82
72
65
65
92
6
43
60
97
25
20
67
86
56
37
96
58
8
6
85
79
94
36
43
17
34
89
46
97
31
36
34
43
25
1
3
43
20
82
3
4
32
9
75
85
43
41
68
6
56
33
60
90
2
10
85
68
89
6
65
88
64
33
9
7
17
27
54
94
6
45
25
1
21
76
64
62
61
66
69
48
22
52
100
99
16
13
100
47
46
51
46
41
61
74
92
68
32
40
57
38
4
81
19
73
95
11
93
96
29
67
33
10
82
45
18
29
54
18
98
2
14
91
76
38
72
62
10
64
66
48
100
25
57
89
48
15
57
66
71
64
34
71
74
56
71
60
74
32
83
50
17
51
66
94
22
50
94
8
41
84
36
80
35
13
40
33
48
90
44
91
90
9
90
44
